c   #vars: 122   #clauses: 557   #literals: 1542
c 
p cnf 122 557
-1 -2 0
-3 -4 0
21 96 97 -120 0
-6 -7 0
-8 -9 0
-10 -11 0
-12 -13 0
-14 -15 0
16 17 52 53 0
-16 -17 0
-31 70 91 92 0
-19 -20 0
24 41 42 -120 0
-22 -23 0
22 23 45 -68 0
-25 -26 0
46 47 116 117 0
24 71 72 -120 0
-27 -28 0
-29 -30 0
-31 -32 0
-33 -34 0
-35 -36 0
-37 -38 0
79 80 94 95 0
64 65 79 80 0
-39 -40 0
-41 -42 0
-43 -44 0
-79 81 85 86 0
-46 -47 0
-48 -49 0
-50 -51 0
-52 -53 0
-54 -55 0
54 55 120 121 0
39 40 104 105 0
-56 -57 0
-58 -59 0
29 30 35 36 0
29 30 52 53 0
-60 -61 0
39 40 114 115 0
68 69 102 103 0
3 4 96 97 0
-62 -63 0
-64 -65 0
-66 -67 0
-68 -69 0
-71 -72 0
-73 -74 0
-75 -76 0
-77 -78 0
-79 -80 0
77 78 82 -110 0
33 34 93 -98 0
-83 -84 0
-85 -86 0
-87 -88 0
-89 -90 0
-91 -92 0
71 72 -103 110 0
-94 -95 0
-96 -97 0
-98 -99 0
-100 -101 0
-102 -103 0
-104 -105 0
-106 -107 0
-108 -109 0
-62 96 97 118 0
5 -14 43 44 0
-112 -113 0
1 2 106 107 0
-114 -115 0
22 23 116 117 0
-116 -117 0
35 36 -64 122 0
68 69 -89 111 0
-120 -121 0
18 27 28 -37 0
-1 -8 0
-2 -9 0
79 80 81 -85 0
-1 -37 0
-2 -38 0
10 11 85 86 0
-1 -46 0
-2 -47 0
10 11 73 74 0
-1 -100 0
-2 -101 0
83 84 116 117 0
-1 -104 0
-2 -105 0
98 99 112 113 0
-1 -106 0
-2 -107 0
-3 -6 0
-4 -7 0
3 4 6 7 0
-3 -29 0
-4 -30 0
62 63 85 86 0
5 14 15 -43 0
6 7 120 121 0
-3 -71 0
-4 -72 0
-3 -96 0
-4 -97 0
39 40 112 113 0
21 96 97 -100 0
-5 -15 0
106 107 108 109 0
21 -100 120 121 0
-5 -44 0
24 -41 71 72 0
21 -96 120 121 0
-5 -92 0
-16 29 30 119 0
-6 -52 0
-7 -53 0
14 15 89 90 0
77 78 82 -83 0
-7 -81 0
64 65 87 88 0
-6 -120 0
-7 -121 0
12 13 87 88 0
-8 -50 0
-9 -51 0
12 13 73 74 0
-8 -96 0
-9 -97 0
5 -43 91 92 0
-9 -111 0
-19 70 91 92 0
-11 -18 0
14 15 27 28 0
-10 -43 0
-11 -44 0
14 15 102 103 0
-10 -54 0
-11 -55 0
60 61 87 88 0
-10 -73 0
-11 -74 0
83 84 94 95 0
-10 -85 0
-11 -86 0
68 69 100 101 0
35 36 -56 122 0
-11 -118 0
29 30 73 74 0
-6 81 85 86 0
-13 -45 0
-31 70 108 109 0
-12 -66 0
-13 -67 0
-16 64 65 119 0
-12 -71 0
-13 -72 0
-12 -73 0
-13 -74 0
-12 -87 0
-13 -88 0
-14 -27 0
-15 -28 0
-14 -50 0
-15 -51 0
-14 -89 0
-15 -90 0
-14 -102 0
-15 -103 0
16 17 48 49 0
-14 -108 0
-15 -109 0
19 20 -31 70 0
8 9 50 51 0
70 91 92 -108 0
-16 -35 0
-17 -36 0
37 38 60 61 0
-16 -48 0
-17 -49 0
14 15 50 51 0
-16 -52 0
-17 -53 0
50 51 106 107 0
-16 -91 0
-17 -92 0
-17 -119 0
21 100 101 -120 0
18 -27 37 38 0
25 26 54 55 0
19 20 70 -108 0
-18 -28 0
46 47 56 57 0
19 20 70 -91 0
-18 -38 0
-72 82 -83 110 0
-20 -70 0
52 53 73 74 0
-19 -75 0
-20 -76 0
-12 45 68 69 0
-19 -98 0
-20 -99 0
-19 -104 0
-20 -105 0
24 41 42 -71 0
-21 -97 0
56 57 91 92 0
24 -71 120 121 0
-21 -101 0
-6 79 80 81 0
24 -41 120 121 0
-21 -121 0
41 42 89 90 0
-22 -27 0
-23 -28 0
31 32 114 115 0
-22 -43 0
-23 -44 0
3 4 29 30 0
6 7 81 -85 0
-23 -45 0
31 32 94 95 0
-22 -64 0
-23 -65 0
-22 -66 0
-23 -67 0
-22 -68 0
-23 -69 0
22 23 66 67 0
-22 -116 0
-23 -117 0
79 80 102 103 0
-12 22 23 45 0
-24 -42 0
27 28 31 32 0
12 13 45 -68 0
-24 -72 0
35 36 106 107 0
12 13 -22 45 0
-24 -121 0
-77 82 -103 110 0
-25 -54 0
-26 -55 0
10 11 18 -27 0
-25 -56 0
-26 -57 0
62 63 100 101 0
-25 -85 0
-26 -86 0
82 -83 -103 110 0
71 72 -82 110 0
-26 -93 0
-10 18 37 38 0
-22 45 68 69 0
-27 -31 0
-28 -32 0
43 44 94 95 0
16 17 -64 119 0
31 32 35 36 0
-29 -31 0
-30 -32 0
70 -91 108 109 0
-29 -33 0
-30 -34 0
22 23 43 44 0
-29 -35 0
-30 -36 0
52 53 62 63 0
-29 -52 0
-30 -53 0
31 32 70 -91 0
-29 -73 0
-30 -74 0
1 2 100 101 0
-29 -96 0
-30 -97 0
-30 -119 0
16 17 35 36 0
-31 -35 0
-32 -36 0
35 36 114 115 0
-31 -62 0
-32 -63 0
-32 -70 0
77 78 98 99 0
-31 -94 0
-32 -95 0
1 2 104 105 0
-31 -114 0
-32 -115 0
39 40 98 99 0
-33 -52 0
-34 -53 0
48 49 116 117 0
-33 -58 0
-34 -59 0
-56 64 65 122 0
-82 102 103 110 0
-34 -93 0
10 11 43 44 0
-35 -46 0
-36 -47 0
48 49 112 113 0
-35 -106 0
-36 -107 0
1 2 8 9 0
-35 -114 0
-36 -115 0
-36 -122 0
43 44 60 61 0
-37 -60 0
-38 -61 0
35 36 46 47 0
-37 -83 0
-38 -84 0
50 51 116 117 0
29 30 33 34 0
-10 18 27 28 0
-39 -66 0
-40 -67 0
37 38 83 84 0
-39 -77 0
-40 -78 0
-39 -79 0
-40 -80 0
58 59 104 105 0
-39 -98 0
-40 -99 0
54 55 108 109 0
-39 -100 0
-40 -101 0
58 59 62 63 0
-39 -104 0
-40 -105 0
66 67 114 115 0
-39 -112 0
-40 -113 0
1 2 37 38 0
-39 -114 0
-40 -115 0
-41 -66 0
-42 -67 0
-41 -89 0
-42 -90 0
33 34 58 59 0
-41 -104 0
-42 -105 0
62 63 96 97 0
-43 -60 0
-44 -61 0
19 20 98 99 0
-43 -94 0
-44 -95 0
-19 31 32 70 0
-43 -112 0
-44 -113 0
46 47 87 88 0
6 7 -79 81 0
-45 -69 0
56 57 71 72 0
-46 -56 0
-47 -57 0
39 40 100 101 0
-46 -60 0
-47 -61 0
-46 -68 0
-47 -69 0
-46 -87 0
-47 -88 0
-46 -114 0
-47 -115 0
22 23 27 28 0
-46 -116 0
-47 -117 0
-48 -75 0
-49 -76 0
31 32 70 -108 0
-48 -112 0
-49 -113 0
6 7 52 53 0
-48 -116 0
-49 -117 0
50 51 54 55 0
-50 -54 0
-51 -55 0
39 40 66 67 0
-50 -106 0
-51 -107 0
10 11 54 55 0
-50 -108 0
-51 -109 0
54 55 112 113 0
-50 -116 0
-51 -117 0
31 32 62 63 0
-52 -62 0
-53 -63 0
21 -96 100 101 0
-52 -73 0
-53 -74 0
33 34 52 53 0
-52 -106 0
-53 -107 0
25 26 56 57 0
-54 -108 0
-55 -109 0
46 47 114 115 0
-54 -112 0
-55 -113 0
75 76 91 92 0
-54 -120 0
-55 -121 0
16 17 -29 119 0
71 72 75 76 0
-56 -64 0
-57 -65 0
12 13 71 72 0
-56 -71 0
-57 -72 0
3 4 71 72 0
-56 -91 0
-57 -92 0
-57 -122 0
41 42 66 67 0
-58 -62 0
-59 -63 0
12 13 66 67 0
-58 -64 0
-59 -65 0
-58 -77 0
-59 -78 0
46 47 68 69 0
-58 -104 0
-59 -105 0
29 30 -64 119 0
5 43 44 -91 0
-60 -87 0
-61 -88 0
29 30 96 97 0
52 53 106 107 0
-68 89 90 111 0
29 30 31 32 0
10 11 18 -37 0
-8 89 90 111 0
83 84 108 109 0
-62 -85 0
-63 -86 0
94 95 100 101 0
-62 -96 0
-63 -97 0
50 51 108 109 0
-62 -100 0
-63 -101 0
56 57 -64 122 0
-63 -118 0
22 23 68 69 0
-64 -79 0
-65 -80 0
56 57 64 65 0
-64 -87 0
-65 -88 0
-65 -119 0
-65 -122 0
91 92 116 117 0
-66 -114 0
-67 -115 0
14 15 108 109 0
-68 -100 0
-69 -101 0
8 9 -89 111 0
-68 -102 0
-69 -103 0
-29 64 65 119 0
5 -14 91 92 0
-69 -111 0
48 49 75 76 0
-70 -92 0
19 20 75 76 0
-70 -109 0
75 76 77 78 0
-71 -75 0
-72 -76 0
-8 68 69 111 0
-71 -110 0
-10 96 97 118 0
58 59 77 78 0
-75 -77 0
-76 -78 0
-33 93 98 99 0
-75 -91 0
-76 -92 0
19 20 104 105 0
-25 33 34 93 0
-78 -82 0
-25 93 98 99 0
-77 -98 0
-78 -99 0
58 59 64 65 0
-10 62 63 118 0
-80 -81 0
-72 -77 82 110 0
-79 -94 0
-80 -95 0
8 9 -68 111 0
-79 -102 0
-80 -103 0
46 47 60 61 0
62 63 -96 118 0
-81 -86 0
-19 70 108 109 0
25 26 93 -98 0
-82 -84 0
39 40 79 80 0
25 26 -33 93 0
10 11 -96 118 0
85 86 89 90 0
-83 -94 0
-84 -95 0
25 26 85 86 0
-83 -108 0
-84 -109 0
82 83 84 -110 0
-83 -116 0
-84 -117 0
-77 82 83 84 0
-85 -89 0
-86 -90 0
-35 64 65 122 0
5 14 15 -91 0
-90 -111 0
8 9 96 97 0
-91 -116 0
-92 -117 0
16 17 91 92 0
-72 102 103 110 0
-93 -99 0
39 40 77 78 0
-94 -100 0
-95 -101 0
43 44 112 113 0
-35 56 57 122 0
-97 -118 0
41 42 104 105 0
-98 -112 0
-99 -113 0
22 23 64 65 0
-102 -110 0
10 11 -62 118 0
1 2 46 47 0
-106 -108 0
-107 -109 0
